c A SAT instance generated from a 3-CNF formula that had 36 clauses and 12 variables
p cnf 12 36
-4 8 -11 0
-3 -11 1 0
4 -10 -9 0
3 9 -11 0
-11 8 -6 0
9 7 1 0
-6 8 -3 0
-1 -7 12 0
9 1 -7 0
-9 7 8 0
12 1 11 0
-12 -2 8 0
-2 1 -9 0
8 -4 -10 0
-5 9 11 0
4 -5 -6 0
12 -5 6 0
2 -12 11 0
-2 3 -7 0
2 -11 7 0
-7 -12 -2 0
-1 3 12 0
6 1 5 0
-8 11 -6 0
-7 10 9 0
1 -12 -11 0
-9 -12 -6 0
-11 -5 3 0
12 -1 10 0
11 3 9 0
-7 10 6 0
-7 -4 3 0
-8 -6 1 0
10 7 -4 0
-11 5 4 0
-11 -9 -8 0
